language ESSENCE' 1.0

letting C_FunctionND be
        [[0, 0, 0, 0, 0, 0, 0, 0, 0, 0, 0, 0, 0, 0, 0, 0; int(0..15)],
         [1, 0, 0, 0, 0, 0, 0, 0, 0, 0, 0, 0, 0, 0, 0, 0; int(0..15)],
         [1, 0, 0, 0, 0, 0, 0, 0, 0, 0, 0, 0, 0, 0, 0, 0; int(0..15)],
         [1, 0, 0, 0, 0, 0, 0, 0, 0, 0, 0, 0, 0, 0, 0, 0; int(0..15)],
         [1, 0, 0, 0, 0, 0, 0, 0, 0, 0, 0, 0, 0, 0, 0, 0; int(0..15)],
         [1, 0, 0, 0, 0, 0, 0, 0, 0, 0, 0, 0, 0, 0, 0, 0; int(0..15)],
         [1, 0, 0, 0, 0, 0, 0, 0, 0, 0, 0, 0, 0, 0, 0, 0; int(0..15)],
         [0, 1, 1, 0, 0, 0, 0, 0, 0, 0, 0, 0, 0, 0, 0, 0; int(0..15)],
         [0, 1, 0, 1, 0, 1, 1, 0, 0, 0, 0, 0, 0, 0, 0, 0; int(0..15)],
         [0, 1, 0, 0, 1, 0, 0, 0, 0, 0, 0, 0, 0, 0, 0, 0; int(0..15)],
         [0, 0, 1, 1, 1, 0, 0, 0, 0, 0, 0, 0, 0, 0, 0, 0; int(0..15)],
         [0, 0, 1, 0, 0, 1, 0, 0, 0, 0, 0, 0, 0, 0, 0, 0; int(0..15)],
         [0, 0, 1, 0, 0, 0, 1, 0, 0, 0, 0, 0, 0, 0, 0, 0; int(0..15)],
         [0, 0, 0, 0, 1, 1, 0, 0, 0, 0, 0, 0, 0, 0, 0, 0; int(0..15)],
         [0, 0, 0, 0, 1, 0, 1, 0, 0, 0, 0, 0, 0, 0, 0, 0; int(0..15)],
         [0, 0, 0, 0, 0, 0, 0, 1, 1, 1, 1, 1, 1, 1, 1, 0; int(0..15)];
             int(0..15)]
$ Visualisation for C_FunctionND
$ 0 0 0 0 0 0 0 0 0 0 0 0 0 0 0 0
$ 1 0 0 0 0 0 0 0 0 0 0 0 0 0 0 0
$ 1 0 0 0 0 0 0 0 0 0 0 0 0 0 0 0
$ 1 0 0 0 0 0 0 0 0 0 0 0 0 0 0 0
$ 1 0 0 0 0 0 0 0 0 0 0 0 0 0 0 0
$ 1 0 0 0 0 0 0 0 0 0 0 0 0 0 0 0
$ 1 0 0 0 0 0 0 0 0 0 0 0 0 0 0 0
$ 0 1 1 0 0 0 0 0 0 0 0 0 0 0 0 0
$ 0 1 0 1 0 1 1 0 0 0 0 0 0 0 0 0
$ 0 1 0 0 1 0 0 0 0 0 0 0 0 0 0 0
$ 0 0 1 1 1 0 0 0 0 0 0 0 0 0 0 0
$ 0 0 1 0 0 1 0 0 0 0 0 0 0 0 0 0
$ 0 0 1 0 0 0 1 0 0 0 0 0 0 0 0 0
$ 0 0 0 0 1 1 0 0 0 0 0 0 0 0 0 0
$ 0 0 0 0 1 0 1 0 0 0 0 0 0 0 0 0
$ 0 0 0 0 0 0 0 1 1 1 1 1 1 1 1 0

letting J_FunctionND be
        [[0, 1, 2, 3, 4, 5, 6, 7, 8, 9, 10, 11, 12, 13, 14, 15; int(0..15)],
         [1, 1, 7, 8, 9, 8, 8, 7, 8, 9, 15, 15, 15, 15, 15, 15; int(0..15)],
         [2, 7, 2, 10, 10, 11, 12, 7, 15, 15, 10, 11, 12, 15, 15, 15; int(0..15)],
         [3, 8, 10, 3, 10, 8, 8, 15, 8, 15, 10, 15, 15, 15, 15, 15; int(0..15)],
         [4, 9, 10, 10, 4, 13, 14, 15, 15, 9, 10, 15, 15, 13, 14, 15; int(0..15)],
         [5, 8, 11, 8, 13, 5, 8, 15, 8, 15, 15, 11, 15, 13, 15, 15; int(0..15)],
         [6, 8, 12, 8, 14, 8, 6, 15, 8, 15, 15, 15, 12, 15, 14, 15; int(0..15)],
         [7, 7, 7, 15, 15, 15, 15, 7, 15, 15, 15, 15, 15, 15, 15, 15; int(0..15)],
         [8, 8, 15, 8, 15, 8, 8, 15, 8, 15, 15, 15, 15, 15, 15, 15; int(0..15)],
         [9, 9, 15, 15, 9, 15, 15, 15, 15, 9, 15, 15, 15, 15, 15, 15; int(0..15)],
         [10, 15, 10, 10, 10, 15, 15, 15, 15, 15, 10, 15, 15, 15, 15, 15; int(0..15)],
         [11, 15, 11, 15, 15, 11, 15, 15, 15, 15, 15, 11, 15, 15, 15, 15; int(0..15)],
         [12, 15, 12, 15, 15, 15, 12, 15, 15, 15, 15, 15, 12, 15, 15, 15; int(0..15)],
         [13, 15, 15, 15, 13, 13, 15, 15, 15, 15, 15, 15, 15, 13, 15, 15; int(0..15)],
         [14, 15, 15, 15, 14, 15, 14, 15, 15, 15, 15, 15, 15, 15, 14, 15; int(0..15)],
         [15, 15, 15, 15, 15, 15, 15, 15, 15, 15, 15, 15, 15, 15, 15, 15; int(0..15)];
             int(0..15)]
$ Visualisation for J_FunctionND
$  0  1  2  3  4  5  6  7  8  9 10 11 12 13 14 15
$  1  1  7  8  9  8  8  7  8  9 15 15 15 15 15 15
$  2  7  2 10 10 11 12  7 15 15 10 11 12 15 15 15
$  3  8 10  3 10  8  8 15  8 15 10 15 15 15 15 15
$  4  9 10 10  4 13 14 15 15  9 10 15 15 13 14 15
$  5  8 11  8 13  5  8 15  8 15 15 11 15 13 15 15
$  6  8 12  8 14  8  6 15  8 15 15 15 12 15 14 15
$  7  7  7 15 15 15 15  7 15 15 15 15 15 15 15 15
$  8  8 15  8 15  8  8 15  8 15 15 15 15 15 15 15
$  9  9 15 15  9 15 15 15 15  9 15 15 15 15 15 15
$ 10 15 10 10 10 15 15 15 15 15 10 15 15 15 15 15
$ 11 15 11 15 15 11 15 15 15 15 15 11 15 15 15 15
$ 12 15 12 15 15 15 12 15 15 15 15 15 12 15 15 15
$ 13 15 15 15 13 13 15 15 15 15 15 15 15 13 15 15
$ 14 15 15 15 14 15 14 15 15 15 15 15 15 15 14 15
$ 15 15 15 15 15 15 15 15 15 15 15 15 15 15 15 15

letting M_FunctionND be
        [[0, 0, 0, 0, 0, 0, 0, 0, 0, 0, 0, 0, 0, 0, 0, 0; int(0..15)],
         [0, 1, 0, 0, 0, 0, 0, 1, 1, 1, 0, 0, 0, 0, 0, 1; int(0..15)],
         [0, 0, 2, 0, 0, 0, 0, 2, 0, 0, 2, 2, 2, 0, 0, 2; int(0..15)],
         [0, 0, 0, 3, 0, 0, 0, 0, 3, 0, 3, 0, 0, 0, 0, 3; int(0..15)],
         [0, 0, 0, 0, 4, 0, 0, 0, 0, 4, 4, 0, 0, 4, 4, 4; int(0..15)],
         [0, 0, 0, 0, 0, 5, 0, 0, 5, 0, 0, 5, 0, 5, 0, 5; int(0..15)],
         [0, 0, 0, 0, 0, 0, 6, 0, 6, 0, 0, 0, 6, 0, 6, 6; int(0..15)],
         [0, 1, 2, 0, 0, 0, 0, 7, 1, 1, 2, 2, 2, 0, 0, 7; int(0..15)],
         [0, 1, 0, 3, 0, 5, 6, 1, 8, 1, 3, 5, 6, 5, 6, 8; int(0..15)],
         [0, 1, 0, 0, 4, 0, 0, 1, 1, 9, 4, 0, 0, 4, 4, 9; int(0..15)],
         [0, 0, 2, 3, 4, 0, 0, 2, 3, 4, 10, 2, 2, 4, 4, 10; int(0..15)],
         [0, 0, 2, 0, 0, 5, 0, 2, 5, 0, 2, 11, 2, 5, 0, 11; int(0..15)],
         [0, 0, 2, 0, 0, 0, 6, 2, 6, 0, 2, 2, 12, 0, 6, 12; int(0..15)],
         [0, 0, 0, 0, 4, 5, 0, 0, 5, 4, 4, 5, 0, 13, 4, 13; int(0..15)],
         [0, 0, 0, 0, 4, 0, 6, 0, 6, 4, 4, 0, 6, 4, 14, 14; int(0..15)],
         [0, 1, 2, 3, 4, 5, 6, 7, 8, 9, 10, 11, 12, 13, 14, 15; int(0..15)];
             int(0..15)]
$ Visualisation for M_FunctionND
$  0  0  0  0  0  0  0  0  0  0  0  0  0  0  0  0
$  0  1  0  0  0  0  0  1  1  1  0  0  0  0  0  1
$  0  0  2  0  0  0  0  2  0  0  2  2  2  0  0  2
$  0  0  0  3  0  0  0  0  3  0  3  0  0  0  0  3
$  0  0  0  0  4  0  0  0  0  4  4  0  0  4  4  4
$  0  0  0  0  0  5  0  0  5  0  0  5  0  5  0  5
$  0  0  0  0  0  0  6  0  6  0  0  0  6  0  6  6
$  0  1  2  0  0  0  0  7  1  1  2  2  2  0  0  7
$  0  1  0  3  0  5  6  1  8  1  3  5  6  5  6  8
$  0  1  0  0  4  0  0  1  1  9  4  0  0  4  4  9
$  0  0  2  3  4  0  0  2  3  4 10  2  2  4  4 10
$  0  0  2  0  0  5  0  2  5  0  2 11  2  5  0 11
$  0  0  2  0  0  0  6  2  6  0  2  2 12  0  6 12
$  0  0  0  0  4  5  0  0  5  4  4  5  0 13  4 13
$  0  0  0  0  4  0  6  0  6  4  4  0  6  4 14 14
$  0  1  2  3  4  5  6  7  8  9 10 11 12 13 14 15

letting R_Function1D be [0, 1, 1, 1, 1, 1, 1, 2, 2, 2, 2, 2, 2, 2, 2, 3; int(0..15)]
